c User generated cnf file
p cnf 13 17
11 6 -10 0 
-5 8 8 0 
-2 6 1 0 
-4 13 3 0 
9 -9 13 0 
-11 5 11 0 
3 -7 11 0 
-10 3 13 0 
13 -3 1 0 
11 8 -8 0 
-9 4 8 0 
-2 8 4 0 
8 8 -2 0 
5 -9 6 0 
-13 6 1 0 
11 -9 4 0 
6 2 -12 0 
